NAME           C:\Bruker\Hvattum\knapsack\Problems\class1\100-5-20.mps
ROWS
 N  OBJ
 L  CONSTR1
 L  CONSTR2
 L  CONSTR3
 L  CONSTR4
 L  CONSTR5
COLUMNS
    INT0001   'MARKER'  'INTORG'
    X1        OBJ       909
    X1        CONSTR1   21
    X1        CONSTR2   685
    X1        CONSTR3   594
    X1        CONSTR4   342
    X1        CONSTR5   818
    X2        OBJ       617
    X2        CONSTR1   619
    X2        CONSTR2   473
    X2        CONSTR3   779
    X2        CONSTR4   649
    X2        CONSTR5   252
    X3        OBJ       704
    X3        CONSTR1   736
    X3        CONSTR2   278
    X3        CONSTR3   606
    X3        CONSTR4   586
    X3        CONSTR5   572
    X4        OBJ       815
    X4        CONSTR1   453
    X4        CONSTR2   841
    X4        CONSTR3   164
    X4        CONSTR4   70
    X4        CONSTR5   286
    X5        OBJ       853
    X5        CONSTR1   196
    X5        CONSTR2   667
    X5        CONSTR3   908
    X5        CONSTR4   197
    X5        CONSTR5   277
    X6        OBJ       892
    X6        CONSTR1   636
    X6        CONSTR2   150
    X6        CONSTR3   142
    X6        CONSTR4   518
    X6        CONSTR5   573
    X7        OBJ       851
    X7        CONSTR1   849
    X7        CONSTR2   488
    X7        CONSTR3   299
    X7        CONSTR4   5
    X7        CONSTR5   191
    X8        OBJ       769
    X8        CONSTR1   94
    X8        CONSTR2   351
    X8        CONSTR3   716
    X8        CONSTR4   363
    X8        CONSTR5   271
    X9        OBJ       688
    X9        CONSTR1   674
    X9        CONSTR2   303
    X9        CONSTR3   484
    X9        CONSTR4   287
    X9        CONSTR5   746
    X10       OBJ       1005
    X10       CONSTR1   728
    X10       CONSTR2   678
    X10       CONSTR3   805
    X10       CONSTR4   634
    X10       CONSTR5   333
    X11       OBJ       461
    X11       CONSTR1   866
    X11       CONSTR2   268
    X11       CONSTR3   635
    X11       CONSTR4   297
    X11       CONSTR5   231
    X12       OBJ       386
    X12       CONSTR1   12
    X12       CONSTR2   431
    X12       CONSTR3   721
    X12       CONSTR4   289
    X12       CONSTR5   65
    X13       OBJ       781
    X13       CONSTR1   903
    X13       CONSTR2   304
    X13       CONSTR3   44
    X13       CONSTR4   284
    X13       CONSTR5   701
    X14       OBJ       1081
    X14       CONSTR1   696
    X14       CONSTR2   657
    X14       CONSTR3   542
    X14       CONSTR4   631
    X14       CONSTR5   985
    X15       OBJ       821
    X15       CONSTR1   154
    X15       CONSTR2   7
    X15       CONSTR3   535
    X15       CONSTR4   907
    X15       CONSTR5   926
    X16       OBJ       912
    X16       CONSTR1   240
    X16       CONSTR2   831
    X16       CONSTR3   726
    X16       CONSTR4   389
    X16       CONSTR5   520
    X17       OBJ       649
    X17       CONSTR1   679
    X17       CONSTR2   195
    X17       CONSTR3   17
    X17       CONSTR4   185
    X17       CONSTR5   10
    X18       OBJ       1247
    X18       CONSTR1   962
    X18       CONSTR2   787
    X18       CONSTR3   997
    X18       CONSTR4   587
    X18       CONSTR5   874
    X19       OBJ       704
    X19       CONSTR1   944
    X19       CONSTR2   370
    X19       CONSTR3   459
    X19       CONSTR4   68
    X19       CONSTR5   503
    X20       OBJ       614
    X20       CONSTR1   550
    X20       CONSTR2   839
    X20       CONSTR3   376
    X20       CONSTR4   659
    X20       CONSTR5   514
    X21       OBJ       911
    X21       CONSTR1   638
    X21       CONSTR2   608
    X21       CONSTR3   334
    X21       CONSTR4   750
    X21       CONSTR5   206
    X22       OBJ       915
    X22       CONSTR1   425
    X22       CONSTR2   190
    X22       CONSTR3   90
    X22       CONSTR4   953
    X22       CONSTR5   805
    X23       OBJ       685
    X23       CONSTR1   321
    X23       CONSTR2   646
    X23       CONSTR3   964
    X23       CONSTR4   116
    X23       CONSTR5   959
    X24       OBJ       862
    X24       CONSTR1   260
    X24       CONSTR2   242
    X24       CONSTR3   599
    X24       CONSTR4   654
    X24       CONSTR5   282
    X25       OBJ       856
    X25       CONSTR1   424
    X25       CONSTR2   660
    X25       CONSTR3   969
    X25       CONSTR4   941
    X25       CONSTR5   962
    X26       OBJ       619
    X26       CONSTR1   546
    X26       CONSTR2   408
    X26       CONSTR3   289
    X26       CONSTR4   414
    X26       CONSTR5   75
    X27       OBJ       655
    X27       CONSTR1   133
    X27       CONSTR2   511
    X27       CONSTR3   891
    X27       CONSTR4   102
    X27       CONSTR5   661
    X28       OBJ       893
    X28       CONSTR1   354
    X28       CONSTR2   245
    X28       CONSTR3   797
    X28       CONSTR4   622
    X28       CONSTR5   483
    X29       OBJ       859
    X29       CONSTR1   923
    X29       CONSTR2   253
    X29       CONSTR3   4
    X29       CONSTR4   280
    X29       CONSTR5   778
    X30       OBJ       866
    X30       CONSTR1   948
    X30       CONSTR2   130
    X30       CONSTR3   580
    X30       CONSTR4   306
    X30       CONSTR5   429
    X31       OBJ       701
    X31       CONSTR1   428
    X31       CONSTR2   770
    X31       CONSTR3   710
    X31       CONSTR4   176
    X31       CONSTR5   672
    X32       OBJ       634
    X32       CONSTR1   645
    X32       CONSTR2   250
    X32       CONSTR3   369
    X32       CONSTR4   860
    X32       CONSTR5   156
    X33       OBJ       729
    X33       CONSTR1   48
    X33       CONSTR2   345
    X33       CONSTR3   468
    X33       CONSTR4   447
    X33       CONSTR5   426
    X34       OBJ       590
    X34       CONSTR1   677
    X34       CONSTR2   910
    X34       CONSTR3   121
    X34       CONSTR4   539
    X34       CONSTR5   78
    X35       OBJ       790
    X35       CONSTR1   676
    X35       CONSTR2   919
    X35       CONSTR3   627
    X35       CONSTR4   271
    X35       CONSTR5   245
    X36       OBJ       523
    X36       CONSTR1   163
    X36       CONSTR2   188
    X36       CONSTR3   225
    X36       CONSTR4   479
    X36       CONSTR5   494
    X37       OBJ       463
    X37       CONSTR1   398
    X37       CONSTR2   302
    X37       CONSTR3   721
    X37       CONSTR4   228
    X37       CONSTR5   315
    X38       OBJ       810
    X38       CONSTR1   508
    X38       CONSTR2   134
    X38       CONSTR3   986
    X38       CONSTR4   696
    X38       CONSTR5   630
    X39       OBJ       971
    X39       CONSTR1   223
    X39       CONSTR2   717
    X39       CONSTR3   84
    X39       CONSTR4   924
    X39       CONSTR5   437
    X40       OBJ       1032
    X40       CONSTR1   510
    X40       CONSTR2   471
    X40       CONSTR3   720
    X40       CONSTR4   685
    X40       CONSTR5   637
    X41       OBJ       593
    X41       CONSTR1   726
    X41       CONSTR2   496
    X41       CONSTR3   730
    X41       CONSTR4   343
    X41       CONSTR5   352
    X42       OBJ       625
    X42       CONSTR1   379
    X42       CONSTR2   116
    X42       CONSTR3   656
    X42       CONSTR4   643
    X42       CONSTR5   858
    X43       OBJ       1020
    X43       CONSTR1   431
    X43       CONSTR2   831
    X43       CONSTR3   521
    X43       CONSTR4   640
    X43       CONSTR5   632
    X44       OBJ       766
    X44       CONSTR1   649
    X44       CONSTR2   271
    X44       CONSTR3   629
    X44       CONSTR4   537
    X44       CONSTR5   890
    X45       OBJ       791
    X45       CONSTR1   683
    X45       CONSTR2   939
    X45       CONSTR3   365
    X45       CONSTR4   952
    X45       CONSTR5   596
    X46       OBJ       472
    X46       CONSTR1   72
    X46       CONSTR2   749
    X46       CONSTR3   127
    X46       CONSTR4   124
    X46       CONSTR5   589
    X47       OBJ       656
    X47       CONSTR1   57
    X47       CONSTR2   610
    X47       CONSTR3   568
    X47       CONSTR4   353
    X47       CONSTR5   589
    X48       OBJ       885
    X48       CONSTR1   900
    X48       CONSTR2   854
    X48       CONSTR3   607
    X48       CONSTR4   142
    X48       CONSTR5   797
    X49       OBJ       794
    X49       CONSTR1   337
    X49       CONSTR2   567
    X49       CONSTR3   553
    X49       CONSTR4   464
    X49       CONSTR5   583
    X50       OBJ       499
    X50       CONSTR1   183
    X50       CONSTR2   508
    X50       CONSTR3   448
    X50       CONSTR4   484
    X50       CONSTR5   644
    X51       OBJ       547
    X51       CONSTR1   746
    X51       CONSTR2   332
    X51       CONSTR3   133
    X51       CONSTR4   66
    X51       CONSTR5   420
    X52       OBJ       813
    X52       CONSTR1   879
    X52       CONSTR2   618
    X52       CONSTR3   2
    X52       CONSTR4   927
    X52       CONSTR5   714
    X53       OBJ       271
    X53       CONSTR1   219
    X53       CONSTR2   44
    X53       CONSTR3   236
    X53       CONSTR4   126
    X53       CONSTR5   557
    X54       OBJ       714
    X54       CONSTR1   242
    X54       CONSTR2   840
    X54       CONSTR3   866
    X54       CONSTR4   152
    X54       CONSTR5   68
    X55       OBJ       563
    X55       CONSTR1   332
    X55       CONSTR2   460
    X55       CONSTR3   489
    X55       CONSTR4   3
    X55       CONSTR5   913
    X56       OBJ       484
    X56       CONSTR1   104
    X56       CONSTR2   276
    X56       CONSTR3   371
    X56       CONSTR4   100
    X56       CONSTR5   75
    X57       OBJ       528
    X57       CONSTR1   946
    X57       CONSTR2   426
    X57       CONSTR3   84
    X57       CONSTR4   946
    X57       CONSTR5   236
    X58       OBJ       1009
    X58       CONSTR1   491
    X58       CONSTR2   813
    X58       CONSTR3   621
    X58       CONSTR4   986
    X58       CONSTR5   996
    X59       OBJ       719
    X59       CONSTR1   799
    X59       CONSTR2   403
    X59       CONSTR3   668
    X59       CONSTR4   294
    X59       CONSTR5   945
    X60       OBJ       775
    X60       CONSTR1   461
    X60       CONSTR2   80
    X60       CONSTR3   786
    X60       CONSTR4   724
    X60       CONSTR5   127
    X61       OBJ       496
    X61       CONSTR1   400
    X61       CONSTR2   730
    X61       CONSTR3   398
    X61       CONSTR4   115
    X61       CONSTR5   377
    X62       OBJ       1127
    X62       CONSTR1   903
    X62       CONSTR2   620
    X62       CONSTR3   811
    X62       CONSTR4   766
    X62       CONSTR5   954
    X63       OBJ       702
    X63       CONSTR1   640
    X63       CONSTR2   622
    X63       CONSTR3   739
    X63       CONSTR4   940
    X63       CONSTR5   433
    X64       OBJ       380
    X64       CONSTR1   240
    X64       CONSTR2   365
    X64       CONSTR3   164
    X64       CONSTR4   829
    X64       CONSTR5   70
    X65       OBJ       848
    X65       CONSTR1   968
    X65       CONSTR2   169
    X65       CONSTR3   736
    X65       CONSTR4   249
    X65       CONSTR5   890
    X66       OBJ       646
    X66       CONSTR1   595
    X66       CONSTR2   321
    X66       CONSTR3   111
    X66       CONSTR4   162
    X66       CONSTR5   799
    X67       OBJ       857
    X67       CONSTR1   49
    X67       CONSTR2   800
    X67       CONSTR3   871
    X67       CONSTR4   363
    X67       CONSTR5   404
    X68       OBJ       435
    X68       CONSTR1   885
    X68       CONSTR2   269
    X68       CONSTR3   438
    X68       CONSTR4   181
    X68       CONSTR5   20
    X69       OBJ       850
    X69       CONSTR1   532
    X69       CONSTR2   795
    X69       CONSTR3   767
    X69       CONSTR4   403
    X69       CONSTR5   401
    X70       OBJ       917
    X70       CONSTR1   556
    X70       CONSTR2   736
    X70       CONSTR3   635
    X70       CONSTR4   283
    X70       CONSTR5   538
    X71       OBJ       657
    X71       CONSTR1   86
    X71       CONSTR2   474
    X71       CONSTR3   91
    X71       CONSTR4   721
    X71       CONSTR5   937
    X72       OBJ       830
    X72       CONSTR1   980
    X72       CONSTR2   673
    X72       CONSTR3   737
    X72       CONSTR4   862
    X72       CONSTR5   838
    X73       OBJ       629
    X73       CONSTR1   923
    X73       CONSTR2   665
    X73       CONSTR3   463
    X73       CONSTR4   302
    X73       CONSTR5   5
    X74       OBJ       944
    X74       CONSTR1   919
    X74       CONSTR2   887
    X74       CONSTR3   731
    X74       CONSTR4   246
    X74       CONSTR5   773
    X75       OBJ       1052
    X75       CONSTR1   691
    X75       CONSTR2   986
    X75       CONSTR3   612
    X75       CONSTR4   517
    X75       CONSTR5   717
    X76       OBJ       1084
    X76       CONSTR1   175
    X76       CONSTR2   876
    X76       CONSTR3   272
    X76       CONSTR4   883
    X76       CONSTR5   848
    X77       OBJ       936
    X77       CONSTR1   697
    X77       CONSTR2   536
    X77       CONSTR3   886
    X77       CONSTR4   1
    X77       CONSTR5   424
    X78       OBJ       756
    X78       CONSTR1   461
    X78       CONSTR2   489
    X78       CONSTR3   507
    X78       CONSTR4   317
    X78       CONSTR5   561
    X79       OBJ       962
    X79       CONSTR1   471
    X79       CONSTR2   380
    X79       CONSTR3   966
    X79       CONSTR4   410
    X79       CONSTR5   334
    X80       OBJ       641
    X80       CONSTR1   340
    X80       CONSTR2   908
    X80       CONSTR3   347
    X80       CONSTR4   437
    X80       CONSTR5   330
    X81       OBJ       590
    X81       CONSTR1   556
    X81       CONSTR2   481
    X81       CONSTR3   399
    X81       CONSTR4   636
    X81       CONSTR5   849
    X82       OBJ       926
    X82       CONSTR1   780
    X82       CONSTR2   144
    X82       CONSTR3   449
    X82       CONSTR4   430
    X82       CONSTR5   346
    X83       OBJ       933
    X83       CONSTR1   841
    X83       CONSTR2   739
    X83       CONSTR3   978
    X83       CONSTR4   714
    X83       CONSTR5   763
    X84       OBJ       888
    X84       CONSTR1   111
    X84       CONSTR2   975
    X84       CONSTR3   225
    X84       CONSTR4   259
    X84       CONSTR5   518
    X85       OBJ       894
    X85       CONSTR1   591
    X85       CONSTR2   311
    X85       CONSTR3   664
    X85       CONSTR4   922
    X85       CONSTR5   887
    X86       OBJ       506
    X86       CONSTR1   549
    X86       CONSTR2   264
    X86       CONSTR3   58
    X86       CONSTR4   667
    X86       CONSTR5   610
    X87       OBJ       698
    X87       CONSTR1   188
    X87       CONSTR2   709
    X87       CONSTR3   785
    X87       CONSTR4   52
    X87       CONSTR5   996
    X88       OBJ       821
    X88       CONSTR1   814
    X88       CONSTR2   379
    X88       CONSTR3   815
    X88       CONSTR4   78
    X88       CONSTR5   194
    X89       OBJ       668
    X89       CONSTR1   177
    X89       CONSTR2   397
    X89       CONSTR3   171
    X89       CONSTR4   34
    X89       CONSTR5   98
    X90       OBJ       741
    X90       CONSTR1   666
    X90       CONSTR2   459
    X90       CONSTR3   725
    X90       CONSTR4   260
    X90       CONSTR5   815
    X91       OBJ       583
    X91       CONSTR1   796
    X91       CONSTR2   202
    X91       CONSTR3   511
    X91       CONSTR4   278
    X91       CONSTR5   437
    X92       OBJ       885
    X92       CONSTR1   220
    X92       CONSTR2   620
    X92       CONSTR3   810
    X92       CONSTR4   80
    X92       CONSTR5   565
    X93       OBJ       747
    X93       CONSTR1   971
    X93       CONSTR2   324
    X93       CONSTR3   724
    X93       CONSTR4   929
    X93       CONSTR5   417
    X94       OBJ       1150
    X94       CONSTR1   843
    X94       CONSTR2   640
    X94       CONSTR3   625
    X94       CONSTR4   388
    X94       CONSTR5   972
    X95       OBJ       909
    X95       CONSTR1   214
    X95       CONSTR2   379
    X95       CONSTR3   312
    X95       CONSTR4   569
    X95       CONSTR5   921
    X96       OBJ       621
    X96       CONSTR1   906
    X96       CONSTR2   204
    X96       CONSTR3   406
    X96       CONSTR4   312
    X96       CONSTR5   252
    X97       OBJ       805
    X97       CONSTR1   276
    X97       CONSTR2   981
    X97       CONSTR3   199
    X97       CONSTR4   781
    X97       CONSTR5   963
    X98       OBJ       624
    X98       CONSTR1   645
    X98       CONSTR2   883
    X98       CONSTR3   136
    X98       CONSTR4   253
    X98       CONSTR5   648
    X99       OBJ       708
    X99       CONSTR1   801
    X99       CONSTR2   227
    X99       CONSTR3   36
    X99       CONSTR4   518
    X99       CONSTR5   1
    X100      OBJ       526
    X100      CONSTR1   130
    X100      CONSTR2   20
    X100      CONSTR3   997
    X100      CONSTR4   542
    X100      CONSTR5   10
    INT0001   'MARKER'  'INTEND'
RHS
    RHS10001  CONSTR1   26241
    RHS10001  CONSTR2   25187
    RHS10001  CONSTR3   25932
    RHS10001  CONSTR4   22543
    RHS10001  CONSTR5   26437
BOUNDS
 BV BND       X1        .00
 BV BND       X2        .00
 BV BND       X3        .00
 BV BND       X4        .00
 BV BND       X5        .00
 BV BND       X6        .00
 BV BND       X7        .00
 BV BND       X8        .00
 BV BND       X9        .00
 BV BND       X10       .00
 BV BND       X11       .00
 BV BND       X12       .00
 BV BND       X13       .00
 BV BND       X14       .00
 BV BND       X15       .00
 BV BND       X16       .00
 BV BND       X17       .00
 BV BND       X18       .00
 BV BND       X19       .00
 BV BND       X20       .00
 BV BND       X21       .00
 BV BND       X22       .00
 BV BND       X23       .00
 BV BND       X24       .00
 BV BND       X25       .00
 BV BND       X26       .00
 BV BND       X27       .00
 BV BND       X28       .00
 BV BND       X29       .00
 BV BND       X30       .00
 BV BND       X31       .00
 BV BND       X32       .00
 BV BND       X33       .00
 BV BND       X34       .00
 BV BND       X35       .00
 BV BND       X36       .00
 BV BND       X37       .00
 BV BND       X38       .00
 BV BND       X39       .00
 BV BND       X40       .00
 BV BND       X41       .00
 BV BND       X42       .00
 BV BND       X43       .00
 BV BND       X44       .00
 BV BND       X45       .00
 BV BND       X46       .00
 BV BND       X47       .00
 BV BND       X48       .00
 BV BND       X49       .00
 BV BND       X50       .00
 BV BND       X51       .00
 BV BND       X52       .00
 BV BND       X53       .00
 BV BND       X54       .00
 BV BND       X55       .00
 BV BND       X56       .00
 BV BND       X57       .00
 BV BND       X58       .00
 BV BND       X59       .00
 BV BND       X60       .00
 BV BND       X61       .00
 BV BND       X62       .00
 BV BND       X63       .00
 BV BND       X64       .00
 BV BND       X65       .00
 BV BND       X66       .00
 BV BND       X67       .00
 BV BND       X68       .00
 BV BND       X69       .00
 BV BND       X70       .00
 BV BND       X71       .00
 BV BND       X72       .00
 BV BND       X73       .00
 BV BND       X74       .00
 BV BND       X75       .00
 BV BND       X76       .00
 BV BND       X77       .00
 BV BND       X78       .00
 BV BND       X79       .00
 BV BND       X80       .00
 BV BND       X81       .00
 BV BND       X82       .00
 BV BND       X83       .00
 BV BND       X84       .00
 BV BND       X85       .00
 BV BND       X86       .00
 BV BND       X87       .00
 BV BND       X88       .00
 BV BND       X89       .00
 BV BND       X90       .00
 BV BND       X91       .00
 BV BND       X92       .00
 BV BND       X93       .00
 BV BND       X94       .00
 BV BND       X95       .00
 BV BND       X96       .00
 BV BND       X97       .00
 BV BND       X98       .00
 BV BND       X99       .00
 BV BND       X100      .00
ENDATA
